8
Lattice="5.315306921 -0.033871384 0.068013345 -0.033871384 5.239786089 -0.149586884 0.068013345 -0.149586884 5.311573731" Properties=species:S:1:pos:R:3:REF_forces:R:3 REF_energy=-42.20673024 REF_stress="_JSON [-0.07177706783823767, -0.03769232381498998, 0.009162042317575678, -0.03769232381498998, -0.08323043681252548, -0.039955832065528045, 0.009162042317575678, -0.039955832065528045, -0.07316969207893213]" pbc="T T T"
Si       0.03090000       5.22271000      -0.12097000      -1.50189800      -0.55659200      -1.50129000
Si       5.28021000       2.53013000       2.65804000       0.45355600       0.32551500      -1.49459800
Si       2.67361000      -0.04686000       2.73334000      -0.20014600       0.01332100      -1.68444800
Si       2.73514000       2.42844000       5.24683000      -1.21600500       0.16183500      -0.54546200
Si       1.38564000       1.20940000       1.25807000       0.03995600       1.21129900       1.36120100
Si       1.44937000       3.80426000       3.80143000      -0.92335000      -0.86575600       1.45717200
Si       4.02375000       1.18749000       3.92855000       1.73812500      -0.62429200       1.56016900
Si       3.89940000       3.87185000       1.22271000       1.60976400       0.33466900       0.84725600
8
Lattice="5.355110889 -0.002567931 0.025563669 -0.002567931 5.312920274 0.141630691 0.025563669 0.141630691 5.634551601" Properties=species:S:1:pos:R:3:REF_forces:R:3 REF_energy=-42.92617216 REF_stress="_JSON [-0.022523646601447154, -0.0016242154368103486, 0.0026556809934446903, -0.0016242154368103486, -0.028846613662932313, 0.0337381030894144, 0.0026556809934446903, 0.0337381030894144, 0.007570388833875062]" pbc="T T T"
Si       0.04386000       0.03093000       0.05079000       0.07646900      -0.01519900       0.15628800
Si       0.04166000       2.75991000       2.93556000      -0.24351800      -0.16531800      -0.77890800
Si       2.70076000       0.12010000       2.83570000       0.84209400      -0.64741000       0.47925100
Si       2.59777000       2.78841000       5.67737000       1.62310600       0.53563900      -0.06058600
Si       1.38472000       1.37642000       1.49887000      -1.02872900       0.31756800      -0.12552400
Si       1.27111000       4.13789000       4.31941000       0.53056200       0.18956300       0.28104200
Si       4.08625000       1.41136000       4.29624000      -1.02653700       0.41957700       0.27217600
Si       4.02023000       4.05064000       1.54991000      -0.77344600      -0.63441900      -0.22373900
8
Lattice="5.454528011 0.000968251 -0.006418019 0.000968251 5.597504601 -0.064349709 -0.006418019 -0.064349709 5.610013886" Properties=species:S:1:pos:R:3:REF_forces:R:3 REF_energy=-42.93425089 REF_stress="_JSON [0.009341978784165766, -0.00403109739347908, -0.0006220475240129032, -0.00403109739347908, 0.02434947526604178, -0.020470970287672297, -0.0006220475240129032, -0.020470970287672297, 0.02384073609870016]" pbc="T T T"
Si       0.10712000       5.57939000      -0.03785000      -1.30196800       0.31843300       0.32015600
Si       0.02301000       2.73914000       2.82600000      -0.13850200       0.44160200      -0.25780200
Si       2.74597000       0.02398000       2.86806000      -0.14691900      -0.81686900      -1.07564500
Si       2.83629000       2.77182000      -0.01554000      -1.24460600       0.29702100      -0.20318300
Si       1.40482000       1.35777000       1.41110000       0.31253500       0.73880100       0.13828100
Si       1.38958000       4.25896000       4.17629000       0.63206700      -1.69278000      -0.18685300
Si       4.08874000       1.30074000       4.20528000       1.24574500       0.49606800       0.45864400
Si       4.10751000       4.17453000       1.33466000       0.64164800       0.21772400       0.80640100
8
Lattice="5.408386605 -0.005958234 -0.005501162 -0.005958234 5.24308882 -0.008674257 -0.005501162 -0.008674257 5.273637872" Properties=species:S:1:pos:R:3:REF_forces:R:3 REF_energy=-42.37196307 REF_stress="_JSON [-0.05366272911726164, -0.003114444397215361, 0.008038439603225048, -0.003114444397215361, -0.07266160202853959, -0.013093699987661186, 0.008038439603225048, -0.013093699987661186, -0.07132465204924804]" pbc="T T T"
Si       0.03790000       0.04289000       5.21220000      -1.54185900      -1.07584700      -0.02840100
Si       0.01759000       2.56861000       2.65400000      -1.23991100       1.02368200       0.13322200
Si       2.58037000       5.18607000       2.56037000       1.38494300       2.02614500      -0.04708700
Si       2.68735000       2.67699000       0.03970000      -0.65490700      -0.33237200      -0.52668500
Si       1.25777000       1.30887000       1.23916000       1.25009200       0.71285300       1.04727400
Si       1.37672000       4.00029000       3.92945000      -0.82874100      -1.81521200       0.30737000
Si       3.99676000       1.31559000       4.04286000      -0.33557300      -0.17249900      -1.73523000
Si       3.98631000       3.99420000       1.26268000       1.96595500      -0.36675000       0.84953700
8
Lattice="5.341149797 0.064828821 0.046700761 0.064828821 5.358416329 0.024484307 0.046700761 0.024484307 5.525349365" Properties=species:S:1:pos:R:3:REF_forces:R:3 REF_energy=-42.91680389 REF_stress="_JSON [-0.030778460601539197, 0.013799864330163617, -0.010062442424075597, 0.013799864330163617, -0.025772451965615402, 0.007086734291710369, -0.010062442424075597, 0.007086734291710369, -0.01029523823145279]" pbc="T T T"
Si       0.10185000       0.04280000       5.50160000      -0.88980500      -0.79196800      -0.63835500
Si       5.36989000       2.85031000       2.82009000       0.40679300      -1.91299800       0.33379100
Si       2.65104000       0.05119000       2.73471000       1.04478200      -0.25714200       0.88827800
Si       2.70097000       2.73275000       0.09747000      -0.30307400      -0.58536500      -0.17335000
Si       1.34654000       1.26291000       1.38767000      -0.61398000       1.84131200      -0.08050700
Si       1.47600000       3.99574000       4.10064000      -0.39660300       0.59950200       0.83380000
Si       3.98794000       1.42842000       4.18263000       0.65987900      -0.11396200      -0.19662400
Si       4.06233000       4.03941000       1.44966000       0.09201000       1.22062100      -0.96703200
8
Lattice="5.280575737 0.047112656 -0.006095795 0.047112656 5.416462155 -0.132286776 -0.006095795 -0.132286776 5.37271096" Properties=species:S:1:pos:R:3:REF_forces:R:3 REF_energy=-42.46181256 REF_stress="_JSON [-0.05456929583477792, 0.004081329058924188, 0.00023884382972017465, 0.004081329058924188, -0.042676187576535136, -0.05495856003443188, 0.00023884382972017465, -0.05495856003443188, -0.04618576319198278]" pbc="T T T"
Si       0.09032000       5.28126000       5.22612000      -1.62399600      -0.66193200       0.30504300
Si       0.10017000       2.68407000       2.62364000      -2.52000100      -0.51310900      -0.89898500
Si       2.59426000      -0.03706000       2.81698000      -0.04265500       0.60238000      -1.32893900
Si       2.70395000       2.54855000       5.25951000      -1.89898600       0.73578300       1.09592000
Si       1.28580000       1.34749000       1.28336000       1.70207400      -0.45448600       0.23687300
Si       1.35430000       3.92651000       3.88572000       1.14754800       0.65242000       1.47710200
Si       4.00269000       1.34705000       4.01731000       1.70891100      -1.17768100      -1.12000900
Si       3.88667000       4.04239000       1.25421000       1.52710300       0.81662700       0.23299400
8
Lattice="5.630214526 0.137766987 -0.117217516 0.137766987 5.467797715 0.080560079 -0.117217516 0.080560079 5.515129743" Properties=species:S:1:pos:R:3:REF_forces:R:3 REF_energy=-42.89508846 REF_stress="_JSON [0.0242715188170595, 0.03358429982153439, -0.021469493159140225, 0.03358429982153439, 0.006671861180112909, 0.02450744162050876, -0.021469493159140225, 0.02450744162050876, 0.011499368896545565]" pbc="T T T"
Si       5.70111000       5.54058000      -0.03488000       1.01161000       0.14131500       0.52371200
Si       5.56897000       2.93353000       2.68744000       1.13301800      -0.57540900       0.90641100
Si       2.87301000       5.53680000       2.76271000       0.29652500       0.48996100       1.04629400
Si       2.85077000       2.78873000       0.03699000       0.46294800      -0.47729000       0.38204500
Si       1.36320000       1.41154000       1.41427000      -0.59437800       0.21100800      -0.72752300
Si       1.45919000       4.19744000       4.18501000      -0.94935800       0.07744600      -0.49737900
Si       4.17513000       1.54464000       4.10171000      -0.86160700       0.17223300      -0.60011000
Si       4.26263000       4.25002000       1.39466000      -0.49876000      -0.03926600      -1.03344900
8
Lattice="5.379716334 0.024928287 0.003119847 0.024928287 5.502970138 -0.009677708 0.003119847 -0.009677708 5.247431858" Properties=species:S:1:pos:R:3:REF_forces:R:3 REF_energy=-42.72897878 REF_stress="_JSON [-0.03767332466121078, -0.0033216437756673077, 0.013122498310768012, -0.0033216437756673077, -0.019592583983859366, 9.812900647713658e-05, 0.013122498310768012, 9.812900647713658e-05, -0.047286178699930764]" pbc="T T T"
Si       0.02873000       5.27709000       5.16672000      -0.47064000       2.14798000       0.89204900
Si       0.01829000       2.75701000       2.66694000      -0.06866700      -1.41974400      -0.74627800
Si       2.71417000       0.01179000       2.61080000       0.18706800       0.81380300      -0.09355200
Si       2.63893000       2.72285000       0.06530000       0.76618400       1.11940500      -1.14611300
Si       1.35385000       1.36955000       1.26545000      -1.29786600      -1.33673700       0.46411300
Si       1.35243000       4.12831000       3.79740000       1.54294400      -0.54806500       0.98856000
Si       4.05342000       1.40960000       3.96921000      -0.06659600      -0.79955300       0.44092300
Si       4.07198000       4.08638000       1.37653000      -0.59242700       0.02291100      -0.79970000
8
Lattice="5.347821304 -0.046142608 0.115053802 -0.046142608 5.482850296 -0.070065026 0.115053802 -0.070065026 5.310091682" Properties=species:S:1:pos:R:3:REF_forces:R:3 REF_energy=-42.81685943 REF_stress="_JSON [-0.03717137625579813, -0.019191616954594374, 0.010642534523744314, -0.019191616954594374, -0.020136650092853484, -0.01492210015401568, 0.010642534523744314, -0.01492210015401568, -0.03998468032070788]" pbc="T T T"
Si       5.27966000       5.43127000       0.12525000      -0.08489200      -0.87008000      -1.99567600
Si       5.37202000       2.69707000       2.70787000       0.34119700      -0.72403400      -0.15763700
Si       2.75727000      -0.03985000       2.69445000      -0.49507800       0.38522900       0.44370800
Si       2.66345000       2.73827000       0.05087000      -0.40652500      -0.64364900      -0.42369800
Si       1.36694000       1.24253000       1.28705000       0.23467800       1.20313300       1.06510200
Si       1.49183000       3.95646000       3.91361000      -1.02110900       0.95347900       0.73909000
Si       4.09359000       1.28994000       4.06103000       0.57980700      -0.24115600       0.25719200
Si       3.96103000       4.03389000       1.38947000       0.85192200      -0.06292200       0.07191900
8
Lattice="5.248805987 0.069601046 -0.030036015 0.069601046 5.444849637 -0.010981106 -0.030036015 -0.010981106 5.325874808" Properties=species:S:1:pos:R:3:REF_forces:R:3 REF_energy=-42.80778086 REF_stress="_JSON [-0.05832195950615135, 0.027472788847725024, -0.006627184457789837, 0.027472788847725024, -0.03706477127992804, 0.0005650687872027149, -0.006627184457789837, 0.0005650687872027149, -0.04903381373819632]" pbc="T T T"
Si       0.04181000       5.35801000       5.24500000       1.03249000       0.19909400       1.19967900
Si       5.21109000       2.74499000       2.60449000       0.38511600      -0.17538800       0.83028400
Si       2.69448000       0.03432000       2.68564000      -0.25701500       0.01153400      -0.34584000
Si       2.63093000       2.77853000       5.28079000      -0.75299900      -0.37171000       1.06505500
Si       1.29229000       1.31728000       1.39489000       0.52045700       0.20642000      -1.50180400
Si       1.36502000       4.10161000       3.86891000      -0.06422600      -0.63789500       0.05545400
Si       3.94466000       1.37833000       4.05393000      -0.15906300       0.84329400      -0.77162700
Si       4.03353000       4.14154000       1.28655000      -0.70475900      -0.07534800      -0.53120100
8
Lattice="5.44987172 -0.079327744 -0.103496976 -0.079327744 5.466324901 0.140719116 -0.103496976 0.140719116 5.395017561" Properties=species:S:1:pos:R:3:REF_forces:R:3 REF_energy=-42.89333689 REF_stress="_JSON [-0.012862895221695151, -0.01660432417664199, -0.026047808623721993, -0.01660432417664199, -0.011507539031991348, 0.02278700083750467, -0.026047808623721993, 0.02278700083750467, -0.019568629071834227]" pbc="T T T"
Si       5.26452000       5.50898000       5.39068000       0.21780800       0.04990100       0.23894100
Si       5.30121000       2.76491000       2.69261000       0.78381100      -0.80738700      -0.66902100
Si       2.64276000       5.49342000       2.85948000      -0.03256500      -0.37570600      -0.90370600
Si       2.59913000       2.84487000       5.39178000      -0.97374900      -0.92195800       0.48609600
Si       1.32708000       1.33430000       1.38605000      -0.53860700       0.53729700       0.14821000
Si       1.22959000       4.16044000       4.13162000      -0.63909300       0.70129100      -0.06055800
Si       3.91800000       1.49629000       4.05861000       0.74923700      -0.57600800      -0.17998100
Si       3.95209000       4.02649000       1.31614000       0.43315800       1.39257000       0.94001900
8
Lattice="5.467365322 0.111406501 -0.040873912 0.111406501 5.208022607 -0.068835831 -0.040873912 -0.068835831 5.335320359" Properties=species:S:1:pos:R:3:REF_forces:R:3 REF_energy=-42.52378893 REF_stress="_JSON [-0.04107010372373547, 0.022306385910284283, -0.012277628910961076, 0.022306385910284283, -0.06642003048756508, -0.022400457935829596, -0.012277628910961076, -0.022400457935829596, -0.05479284172563056]" pbc="T T T"
Si       0.09093000       5.08176000       5.26310000      -1.43784300       1.19796900       0.22468700
Si       0.05714000       2.50733000       2.62146000      -0.90173800       0.78206800       0.32665400
Si       2.63603000       0.02671000       2.71075000       0.86459600      -1.12254800      -0.46536500
Si       2.75035000       2.67679000       5.27594000      -0.36598000      -1.88436700       0.33108800
Si       1.34780000       1.23336000       1.34286000       0.96293600       0.87394500      -1.50587900
Si       1.38289000       3.88336000       3.96428000       0.46747200      -0.57824300      -1.24346700
Si       4.07116000       1.33528000       3.87890000       0.42794000       0.23254400       0.99723400
Si       4.19729000       3.96449000       1.18578000      -0.01738300       0.49863200       1.33504800
8
Lattice="5.438534274 -0.027568436 -0.042947131 -0.027568436 5.604675613 -0.003262764 -0.042947131 -0.003262764 5.45459472" Properties=species:S:1:pos:R:3:REF_forces:R:3 REF_energy=-43.02346432 REF_stress="_JSON [-0.0008536761691835567, -0.013125519201184937, 0.0007714505279591707, -0.013125519201184937, 0.018590397346534542, 0.007160047057902994, 0.0007714505279591707, 0.007160047057902994, 0.0011737969307409832]" pbc="T T T"
Si      -0.01420000       5.54911000       0.01641000      -0.53497900       0.33705500       0.03765000
Si       5.35747000       2.70568000       2.75964000       1.10437600       1.19971500      -1.66817600
Si       2.59778000       0.03004000       2.78479000       0.91418200      -0.31529100      -0.67165100
Si       2.65965000       2.74230000       5.41556000       0.29853700       0.68440000       0.27421400
Si       1.35206000       1.40695000       1.33608000      -0.59874900      -0.22768200       0.29272700
Si       1.28904000       4.16812000       4.08914000      -0.12696700      -0.09689600       0.34523300
Si       4.06159000       1.44738000       4.02576000      -0.82913000      -1.85503700       1.44385800
Si       4.01463000       4.16359000       1.40257000      -0.22727000       0.27373600      -0.05385400
8
Lattice="5.477493192 0.08848809 0.039239918 0.08848809 5.342312889 0.02726385 0.039239918 0.02726385 5.339447244" Properties=species:S:1:pos:R:3:REF_forces:R:3 REF_energy=-42.9640468 REF_stress="_JSON [-0.021699580151556784, 0.016495877955579767, 0.022189956799050056, 0.016495877955579767, -0.03483894926149206, 0.011435786643080195, 0.022189956799050056, 0.011435786643080195, -0.03518837390839551]" pbc="T T T"
Si       0.10598000       5.31800000       0.07414000       0.30930400       0.45388000      -0.37520700
Si       0.09091000       2.60217000       2.61252000       0.33501800       1.23282800       0.64955900
Si       2.88977000       5.31823000       2.71750000       1.02236700       1.05523400       0.52187200
Si       2.78451000       2.68649000       0.05150000      -0.14129200       0.39754400      -0.62230400
Si       1.48396000       1.30038000       1.39512000      -0.32215200      -0.27357400      -0.95347500
Si       1.48658000       4.09665000       3.96706000      -0.80276600      -1.45243100       0.73677700
Si       4.22874000       1.45604000       4.02381000      -0.63826100      -0.94181500       0.24706100
Si       4.18510000       4.03694000       1.35119000       0.23778100      -0.47166700      -0.20428400
8
Lattice="5.575043726 0.076622316 -0.063088563 0.076622316 5.683515714 0.075980526 -0.063088563 0.075980526 5.380987434" Properties=species:S:1:pos:R:3:REF_forces:R:3 REF_energy=-42.82915464 REF_stress="_JSON [0.01950741859183669, 0.018571448124828364, -0.005012300077122684, 0.018571448124828364, 0.03401299163433655, 0.010578777508023414, -0.005012300077122684, 0.010578777508023414, 0.002240732983737719]" pbc="T T T"
Si       0.06366000       5.66901000       5.45509000      -0.84200000       1.29506200       0.32654300
Si       5.54142000       2.95143000       2.71226000       0.16982900       0.14004700      -0.36941900
Si       2.73109000       5.67527000       2.71725000       0.20630700       1.24412500       0.59595800
Si       2.81619000       3.00165000       5.35520000       0.21175600      -0.91675200       1.17664100
Si       1.36587000       1.48221000       1.30377000      -0.02484400       0.07556600       0.13146200
Si       1.41408000       4.29819000       4.16476000      -0.66216100       0.02388900      -1.45655400
Si       4.11383000       1.55543000       4.00510000       0.18562900      -1.01290200      -0.28956300
Si       4.15577000       4.42447000       1.36886000       0.75548300      -0.84903500      -0.11506800
8
Lattice="5.472341941 0.04750859 -0.102139851 0.04750859 5.591606813 -0.029395404 -0.102139851 -0.029395404 5.522412053" Properties=species:S:1:pos:R:3:REF_forces:R:3 REF_energy=-42.75843094 REF_stress="_JSON [0.003086476194822278, 0.007244919098996755, -0.02023922305382825, 0.007244919098996755, 0.016740008343529567, -0.002542166666972251, -0.02023922305382825, -0.002542166666972251, 0.010544848664415114]" pbc="T T T"
Si       5.45306000       0.13018000      -0.07742000       0.36465500      -1.91150000      -0.33168600
Si       5.38465000       2.78296000       2.55723000       0.78638300       0.11831400       1.00604100
Si       2.73282000       5.55482000       2.74873000       0.76894200       0.95835700      -1.00084300
Si       2.69110000       2.79864000       5.43629000      -1.28625200       0.06399300       0.08700800
Si       1.33591000       1.37660000       1.29749000       0.94924600       0.57448900       0.91111800
Si       1.38804000       4.24065000       4.01814000      -1.50093700      -0.89624800       0.72916200
Si       4.05509000       1.45644000       4.17418000      -0.20765700      -0.06766700      -1.85845200
Si       4.09876000       4.18207000       1.23250000       0.12562000       1.16026200       0.45765200
8
Lattice="5.273523326 -0.050121309 0.016399708 -0.050121309 5.332352298 -0.039884501 0.016399708 -0.039884501 5.510804516" Properties=species:S:1:pos:R:3:REF_forces:R:3 REF_energy=-42.47977533 REF_stress="_JSON [-0.05015663626390622, -0.013130593548104284, 0.023349173564472976, -0.013130593548104284, -0.04848811235381122, -0.0318688772118675, 0.023349173564472976, -0.0318688772118675, -0.02651559724968869]" pbc="T T T"
Si      -0.01777000       5.23501000       5.43165000      -0.21920400       1.15948700      -0.32405100
Si       0.03120000       2.59410000       2.68456000      -1.77887900       1.86672900       0.93710300
Si       2.62784000       5.22530000       2.79492000      -0.45552900       1.21889000      -1.38423300
Si       2.71899000       2.59010000       5.49807000      -2.32858200      -0.21295800       0.20941500
Si       1.20263000       1.30984000       1.39713000       2.54522300      -1.31305600      -0.92323900
Si       1.32700000       3.96283000       4.10407000       0.01017500      -1.44918300       0.21625000
Si       3.93478000       1.28831000       4.15860000       1.28918000      -0.69328800      -0.62379300
Si       3.88216000       4.01045000       1.25620000       0.93761600      -0.57662100       1.89254800
8
Lattice="5.338025827 -0.047686454 -0.119069501 -0.047686454 5.464979122 0.029961562 -0.119069501 0.029961562 5.197474349" Properties=species:S:1:pos:R:3:REF_forces:R:3 REF_energy=-42.36905012 REF_stress="_JSON [-0.05970894766410512, -0.027913645361813535, -0.03070262626565971, -0.027913645361813535, -0.0415792048986064, 0.0039235187421853565, -0.03070262626565971, 0.0039235187421853565, -0.06871973949103327]" pbc="T T T"
Si       5.13442000       5.39854000       5.07631000      -0.21531900       0.21292200       0.53372500
Si      -0.03098000       2.75935000       2.64806000      -0.40044000      -0.33005000      -0.00656800
Si       2.54407000       0.04168000       2.64462000       0.37728100      -1.57931000      -3.05189600
Si       2.63968000       2.63799000      -0.02163000      -0.17279000       0.13370700      -0.63724200
Si       1.26833000       1.35863000       1.32184000      -0.65490700       0.07023600      -0.59369200
Si       1.25151000       4.20576000       3.89145000      -0.81629300      -1.62698300       1.48639200
Si       3.83076000       1.30917000       3.74328000       2.04735000       2.02675400       1.87064700
Si       3.91925000       4.00400000       1.25567000      -0.16488300       1.09272400       0.39863300
8
Lattice="5.320596102 -0.034667318 -0.033007723 -0.034667318 5.464588597 -0.061691529 -0.033007723 -0.061691529 5.463758488" Properties=species:S:1:pos:R:3:REF_forces:R:3 REF_energy=-42.60275942 REF_stress="_JSON [-0.031510839282370334, -0.00472251304991705, 0.0023026175467208516, -0.00472251304991705, -0.02181020465930394, -0.03254575015204216, 0.0023026175467208516, -0.03254575015204216, -0.021088080777966627]" pbc="T T T"
Si       5.26374000       5.40780000      -0.04134000       0.42324100       0.87147400      -1.41670100
Si      -0.02708000       2.66350000       2.62087000      -0.19237300       1.33589100       1.60298300
Si       2.77706000      -0.03992000       2.67809000      -1.88695300       0.06893100       0.30580700
Si       2.78052000       2.75496000      -0.04392000      -2.77421500      -0.43463200       0.05833200
Si       1.27586000       1.37703000       1.37243000       1.86578400      -0.87942100      -0.86744400
Si       1.34987000       4.06046000       4.08068000      -0.15112500       0.04119300      -0.66653300
Si       3.90396000       1.39401000       4.04378000       1.82737300      -1.25148300      -0.17479500
Si       3.98486000       4.05832000       1.25176000       0.88826800       0.24804600       1.15835000
8
Lattice="5.463796541 -0.005399169 0.047697382 -0.005399169 5.218790264 -0.087891649 0.047697382 -0.087891649 5.428875159" Properties=species:S:1:pos:R:3:REF_forces:R:3 REF_energy=-42.81959837 REF_stress="_JSON [-0.027739650811911286, -0.009190216489769915, 0.006951930177609543, -0.009190216489769915, -0.05446020673827573, -0.03120069245239607, 0.006951930177609543, -0.03120069245239607, -0.03341201544513263]" pbc="T T T"
Si       5.42776000       5.17951000      -0.02380000      -0.12755100       1.04656100      -0.78402200
Si       0.06772000       2.54578000       2.64135000      -1.23236800       0.17932900      -0.05650800
Si       2.76428000       5.16293000       2.64707000      -1.11090400      -0.48977800      -0.31407000
Si       2.71531000       2.65197000      -0.01854000      -0.55541400      -0.78702500      -0.48753700
Si       1.42477000       1.25864000       1.33117000      -0.18143000      -0.27794500      -0.12357100
Si       1.39651000       3.81708000       4.03368000      -0.02821200       0.34746700      -0.34708900
Si       4.03308000       1.23030000       4.02963000       1.94178700       0.41841500       0.78615800
Si       4.05564000       3.90089000       1.25363000       1.29409200      -0.43702400       1.32663800
8
Lattice="5.289884955 -0.117327549 -0.115990305 -0.117327549 5.512099014 0.043680936 -0.115990305 0.043680936 5.574905302" Properties=species:S:1:pos:R:3:REF_forces:R:3 REF_energy=-42.48468057 REF_stress="_JSON [-0.03190746846279284, -0.028066225293904876, -0.02675726224153377, -0.028066225293904876, -0.008287812858840587, 0.006581546543061379, -0.02675726224153377, 0.006581546543061379, -6.16224195998454e-05]" pbc="T T T"
Si      -0.07140000       5.42633000       0.12890000      -0.38416400       1.40867700      -1.81286700
Si       5.13030000       2.71890000       2.72385000       0.75543300      -0.81920500       0.05990400
Si       2.59842000       0.04154000       2.61955000       0.78864700      -1.45311100       1.50895500
Si       2.61842000       2.73880000       0.00858000      -1.02683300      -0.88480400      -1.12736700
Si       1.28722000       1.30295000       1.35763000      -0.71392300       2.13814300       0.35534100
Si       1.11728000       4.22013000       4.26201000       0.89480800      -0.32296100      -1.07484000
Si       3.81219000       1.37403000       4.15399000       0.44115400      -0.41780700       0.01340900
Si       3.90705000       4.04575000       1.26578000      -0.75512200       0.35106800       2.07746500
8
Lattice="5.479149686 -0.094109744 -0.057870308 -0.094109744 5.449445464 0.079312817 -0.057870308 0.079312817 5.46174472" Properties=species:S:1:pos:R:3:REF_forces:R:3 REF_energy=-42.93394529 REF_stress="_JSON [-0.0019967586335160686, -0.0026233187686269853, -0.014419109416578998, -0.0026233187686269853, -0.007370616851282917, 0.011763060174095882, -0.014419109416578998, 0.011763060174095882, -0.0023743824186502572]" pbc="T T T"
Si       5.34746000       5.34484000       0.07023000       0.44146600      -0.51596600      -0.46694500
Si       5.38338000       2.65596000       2.64582000       1.00653500      -0.53302500       1.41769200
Si       2.78051000       0.03619000       2.67812000      -0.62038800      -0.44973200       0.66198400
Si       2.71582000       2.72811000       5.40668000      -1.41997100       0.67532900       1.18381700
Si       1.27348000       1.31093000       1.39810000       1.06302400       0.78992200      -0.44041100
Si       1.22199000       4.14675000       4.14873000       0.46808200      -0.03959200      -0.20517200
Si       4.05595000       1.37969000       4.15373000       0.32111300      -0.35774300      -1.04777700
Si       4.06000000       4.01199000       1.46989000      -1.25985900       0.43080700      -1.10318700
8
Lattice="5.520631108 -0.053980874 0.046101004 -0.053980874 5.538182669 -0.074343822 0.046101004 -0.074343822 5.557913832" Properties=species:S:1:pos:R:3:REF_forces:R:3 REF_energy=-43.0048941 REF_stress="_JSON [0.012648387036056793, -0.009802957923676126, 0.01563124169637116, -0.009802957923676126, 0.015168508692796425, -0.01768692641754469, 0.01563124169637116, -0.01768692641754469, 0.018056748316271527]" pbc="T T T"
Si       0.05366000       5.42417000       5.45125000      -0.53870300       0.39001200      -0.22262900
Si      -0.00090000       2.77075000       2.74958000       0.27057300      -0.07824400      -0.76033900
Si       2.86280000      -0.04239000       2.74887000      -1.39759700       0.75880300       0.31591000
Si       2.83798000       2.61352000       5.49989000       0.01372600       1.23187200       0.03676300
Si       1.39501000       1.38193000       1.25315000       0.06179000      -0.19085200       1.34394500
Si       1.42112000       4.08705000       4.09421000       0.65844500      -0.28821600      -0.03858000
Si       4.21489000       1.28827000       4.15069000       0.38460000      -0.39727500       0.19605000
Si       4.13349000       4.18006000       1.40382000       0.54716500      -1.42610000      -0.87112100
8
Lattice="5.547594748 -0.047329847 -0.068236589 -0.047329847 5.464794826 -0.157835271 -0.068236589 -0.157835271 5.309336442" Properties=species:S:1:pos:R:3:REF_forces:R:3 REF_energy=-42.5250597 REF_stress="_JSON [-0.00936060968890653, -0.02000003594110615, -0.035981769582441286, -0.02000003594110615, -0.01633366113339806, -0.03874592800449383, -0.035981769582441286, -0.03874592800449383, -0.03282912714937552]" pbc="T T T"
Si      -0.10156000       5.29762000       5.12606000      -0.43790700      -0.66250000       0.39535900
Si       0.00429000       2.59956000       2.63628000      -1.52290000      -0.37241900      -1.29084800
Si       2.72439000      -0.08541000       2.67538000       0.29840500      -1.08231700      -0.57801100
Si       2.65729000       2.67139000       5.19132000      -0.86529800      -2.91839700      -0.66006500
Si       1.37975000       1.22134000       1.34642000       0.34810400       1.37897900      -0.72377600
Si       1.31135000       3.94733000       3.82962000       0.36937600       1.03520800       0.37692000
Si       4.15224000       1.16456000       3.91153000      -0.17033100       1.37601500       0.53771300
Si       4.06056000       3.99852000       1.09859000       1.98055200       1.24543100       1.94270700
8
Lattice="5.179790425 0.027899643 0.015659806 0.027899643 5.506941991 0.01995526 0.015659806 0.01995526 5.488272448" Properties=species:S:1:pos:R:3:REF_forces:R:3 REF_energy=-42.90537222 REF_stress="_JSON [-0.049720904028810055, 0.011299509532825658, 0.009853227038175991, 0.011299509532825658, -0.01803681917763258, -0.007793535268143642, 0.009853227038175991, -0.007793535268143642, -0.019541128982625583]" pbc="T T T"
Si       5.20683000       5.50454000       5.47113000      -0.52285300       1.52433100       1.43978500
Si       0.04126000       2.77540000       2.76649000      -0.13600800      -0.25147200       0.30925400
Si       2.69065000       5.48906000       2.77210000      -1.40360700       0.26486600       0.14498700
Si       2.61136000       2.77121000       0.06329000      -0.01836900      -0.02933200      -0.63730500
Si       1.33995000       1.41982000       1.37275000      -0.55813300      -1.11860700       0.28716100
Si       1.28795000       4.16916000       4.21940000       1.15744600      -0.82984300      -1.50367400
Si       3.84723000       1.38258000       4.11728000       0.71882800       0.54043900       0.08882100
Si       3.89423000       4.13554000       1.40053000       0.76269600      -0.10038200      -0.12902900
8
Lattice="5.379485805 -0.00154525 0.011134527 -0.00154525 5.419459725 0.066228179 0.011134527 0.066228179 5.15192496" Properties=species:S:1:pos:R:3:REF_forces:R:3 REF_energy=-41.96945473 REF_stress="_JSON [-0.05853506335223638, -0.029841216866669185, 0.027066191977228482, -0.029841216866669185, -0.057192040384565324, -0.007051307485911856, 0.027066191977228482, -0.007051307485911856, -0.07498577150627213]" pbc="T T T"
Si       0.01388000       5.41538000       0.18374000      -0.82664100      -0.29566800      -1.83834700
Si       5.35339000       2.66755000       2.71964000       0.57971800       2.83870600      -0.93646300
Si       2.77046000       5.38870000       2.68085000      -1.56174400       1.29652600      -0.94269800
Si       2.67815000       2.66561000       0.05394000      -0.69130500       0.15315300      -0.34056900
Si       1.16851000       1.37499000       1.39441000       2.88928000      -0.15079200      -0.35668600
Si       1.31942000       4.19597000       3.84916000      -0.20566300      -1.28806500       1.81650300
Si       4.03177000       1.38156000       3.77249000      -0.87301100      -0.92280500       3.34721200
Si       3.98309000       4.08710000       1.38966000       0.68936700      -1.63105500      -0.74895200
8
Lattice="5.447581801 0.019107418 -0.002396636 0.019107418 5.352328696 0.130861545 -0.002396636 0.130861545 5.601588369" Properties=species:S:1:pos:R:3:REF_forces:R:3 REF_energy=-42.92906999 REF_stress="_JSON [-0.00791440209236637, 0.004221201278435233, 0.002547147391254706, 0.004221201278435233, -0.01650533384190548, 0.035102066320202796, 0.002547147391254706, 0.035102066320202796, 0.009501012436693273]" pbc="T T T"
Si       5.43708000       0.19704000       5.51091000       0.62346000      -0.35533500       0.76036000
Si       5.42500000       2.76247000       2.83306000       1.09516900      -0.35125600       0.72484800
Si       2.81621000       5.33963000       2.94561000      -0.28122300       0.62726100      -0.55845200
Si       2.67041000       2.64014000       0.10561000       1.45022600       0.82850900      -0.55790900
Si       1.36892000       1.41202000       1.40128000      -0.87333300      -1.67294900       1.26067800
Si       1.39116000       4.09113000       4.32126000      -0.72131100       0.21349600      -0.59742400
Si       4.03560000       1.48386000       4.23269000      -0.38361500      -0.14074200      -0.46327900
Si       4.15888000       4.00480000       1.45291000      -0.90937200       0.85101600      -0.56882000
8
Lattice="5.617914229 0.069617505 0.014127394 0.069617505 5.31045934 -0.070019761 0.014127394 -0.070019761 5.430143694" Properties=species:S:1:pos:R:3:REF_forces:R:3 REF_energy=-42.37679693 REF_stress="_JSON [0.004915831312073032, -0.0004958941415605508, -0.01268202252873618, -0.0004958941415605508, -0.02882340773200228, -0.04007900824812735, -0.01268202252873618, -0.04007900824812735, -0.01737432667448395]" pbc="T T T"
Si       5.56138000       0.11550000       0.12686000      -0.29863300      -1.85374700      -1.06920900
Si       0.08362000       2.62007000       2.65524000      -1.30369700      -0.55753000       0.11448600
Si       2.89679000       0.04180000       2.81014000      -2.30682500      -0.96033700      -1.56135200
Si       2.98492000       2.58163000       5.37003000      -2.66426600       0.37024700      -0.26955000
Si       1.35279000       1.33491000       1.27280000       2.37691300       0.29634000       0.66449800
Si       1.39462000       3.95101000       3.92090000       1.30093500       0.70616200       1.76821700
Si       4.23800000       1.24439000       4.07913000       1.87498900       1.05505900       0.00245200
Si       4.19432000       3.93636000       1.34456000       1.02058400       0.94380700       0.35045900
8
Lattice="5.394409517 0.051403424 -0.01757564 0.051403424 5.378112421 0.011428492 -0.01757564 0.011428492 5.575960158" Properties=species:S:1:pos:R:3:REF_forces:R:3 REF_energy=-43.02911695 REF_stress="_JSON [-0.015446168467770468, 0.005324837405092163, -0.006232458937650728, 0.005324837405092163, -0.015208042411599771, 0.0028126299819241506, -0.006232458937650728, 0.0028126299819241506, 0.005918567202200933]" pbc="T T T"
Si       5.33986000       0.12610000       0.00341000       0.59520300      -1.03018800      -0.49398800
Si       5.40280000       2.69792000       2.70901000       0.64682100       0.71558700       1.08124900
Si       2.75693000       0.08543000       2.80182000      -0.60063100      -1.41895700      -0.56886300
Si       2.72813000       2.63281000       0.04970000      -0.32038400       0.99147900      -0.83946900
Si       1.36723000       1.34811000       1.38857000      -0.08197300      -0.50143500       0.18769500
Si       1.40319000       4.07379000       4.18734000      -0.40188800      -0.05283400       0.05801000
Si       4.01872000       1.42507000       4.13293000       0.55749500       0.24864900       0.36250700
Si       4.10579000       4.00404000       1.34376000      -0.39464400       1.04769900       0.21285900
8
Lattice="5.354162618 0.034806283 -0.003750588 0.034806283 5.387934196 0.021919668 -0.003750588 0.021919668 5.520797381" Properties=species:S:1:pos:R:3:REF_forces:R:3 REF_energy=-42.91375957 REF_stress="_JSON [-0.026960922684311335, 0.028018746133984283, -0.013401175451729573, 0.028018746133984283, -0.023479121784473866, -0.002825612320905987, -0.013401175451729573, -0.002825612320905987, -0.007542851295611666]" pbc="T T T"
Si       0.06414000       5.38485000       5.47229000      -0.21410600      -0.39634200       1.17981700
Si       5.35884000       2.79004000       2.74401000       0.31577700      -1.26884900       1.13734000
Si       2.75612000       0.03276000       2.70358000      -1.40990700       0.38912000       0.92644100
Si       2.71727000       2.79138000       5.49354000      -0.07893700      -1.29732200       1.29991900
Si       1.28192000       1.33576000       1.38272000       0.78952400       0.51566400      -0.46593000
Si       1.40225000       4.03211000       4.16654000      -0.09591500       0.75054600      -1.33463300
Si       4.00435000       1.33522000       4.18862000       0.24299300       1.00732700      -0.91906100
Si       4.03276000       4.05915000       1.45321000       0.45057000       0.29985600      -1.82389200
8
Lattice="5.314509912 -0.045809454 0.094958619 -0.045809454 5.466397295 0.001039203 0.094958619 0.001039203 5.270292565" Properties=species:S:1:pos:R:3:REF_forces:R:3 REF_energy=-42.59148438 REF_stress="_JSON [-0.05230433331261353, -0.029435406426322506, 0.0012333222032745318, -0.029435406426322506, -0.03252933498304109, 0.007042088776932925, 0.0012333222032745318, 0.007042088776932925, -0.053175104975292875]" pbc="T T T"
Si       5.32795000       0.02943000       5.32769000       1.04109100      -0.62801300       0.23457000
Si       0.03289000       2.79356000       2.68765000      -0.47255100      -1.07577800      -1.65739000
Si       2.64396000      -0.00885000       2.67171000       1.18951200       0.08236600      -0.90661000
Si       2.61863000       2.80703000       0.05169000      -0.85484500      -1.18361000      -1.46496000
Si       1.35523000       1.32880000       1.26617000      -0.51244100       0.65455200       1.04718400
Si       1.30958000       4.12596000       3.93816000       0.29631900       0.19237500       1.12720100
Si       4.04352000       1.31541000       4.04957000      -1.16912600       0.94154200      -0.85135600
Si       3.97266000       4.01160000       1.26514000       0.48204000       1.01656500       2.47136100
8
Lattice="5.438523855 -0.089571141 0.001879852 -0.089571141 5.366497893 0.112244715 0.001879852 0.112244715 5.470708685" Properties=species:S:1:pos:R:3:REF_forces:R:3 REF_energy=-42.58494621 REF_stress="_JSON [-0.020549132706455732, -0.024736729699757206, 0.018822063440759953, -0.024736729699757206, -0.02926900779302646, 0.04610057283392361, 0.018822063440759953, 0.04610057283392361, -0.0201203285464893]" pbc="T T T"
Si       0.01449000       0.11842000       5.46261000      -0.41042000       0.70035300       0.16913800
Si       5.37832000       2.62641000       2.77857000       1.63810800       1.67125300      -1.12794800
Si       2.50831000       5.34218000       2.94150000       2.66058200       0.93986900      -1.13731900
Si       2.58234000       2.62693000       0.06378000       1.75097700       0.12704000      -0.11505800
Si       1.34508000       1.32563000       1.45580000      -0.83360300      -0.27166800      -0.11291800
Si       1.27200000       4.12432000       4.26258000      -1.40692100      -1.29854800       0.24221400
Si       4.12256000       1.46490000       4.06854000      -2.36668800      -1.98732500       1.91950300
Si       4.00076000       3.98172000       1.46286000      -1.03203400       0.11902500       0.16238800
8
Lattice="5.424039318 0.013421762 0.045778396 0.013421762 5.493984516 0.117922127 0.045778396 0.117922127 5.620115705" Properties=species:S:1:pos:R:3:REF_forces:R:3 REF_energy=-42.90923156 REF_stress="_JSON [-0.0013309706135489754, -0.01183480632149791, 0.013369811868372009, -0.01183480632149791, 0.005611229051333316, 0.02117843286407291, 0.013369811868372009, 0.02117843286407291, 0.02083450074520024]" pbc="T T T"
Si       5.40596000       5.50014000       0.24297000       0.84573600       0.79273100      -1.64907600
Si       5.43242000       2.81347000       2.91888000      -0.47261500       0.31501000      -0.09691800
Si       2.68324000       0.15508000       2.90357000       0.22098500      -0.70066700      -1.39835100
Si       2.69739000       2.73672000       0.08596000       0.00833700       0.85150100      -0.32828500
Si       1.31389000       1.43091000       1.44717000       0.01661400      -0.05188100       0.19383300
Si       1.35010000       4.24594000       4.24698000      -0.22960800      -0.60432800       1.15165000
Si       4.00565000       1.42904000       4.27907000       0.97987800       0.65188600       0.70157000
Si       4.09039000       4.23131000       1.48659000      -1.36932700      -1.25425300       1.42557900
8
Lattice="5.423190652 0.028032604 -0.043228763 0.028032604 5.3661398 -0.099846309 -0.043228763 -0.099846309 5.517980583" Properties=species:S:1:pos:R:3:REF_forces:R:3 REF_energy=-42.98336796 REF_stress="_JSON [-0.01624476956042723, 0.002947895967700292, -0.011023609863425116, 0.002947895967700292, -0.02169215899720611, -0.023058144476951287, -0.011023609863425116, -0.023058144476951287, -0.002682962629833926]" pbc="T T T"
Si       5.34313000       5.26525000       5.36803000       0.09570500       0.55439000      -0.22345800
Si      -0.00077000       2.64217000       2.74149000      -0.41944600      -0.65596900      -0.37383900
Si       2.70798000       5.32728000       2.60706000      -0.95626900       0.08910200      -0.14971700
Si       2.67963000       2.70173000       5.41325000      -0.03531500      -0.98226200       0.41148400
Si       1.31081000       1.34033000       1.35869000       0.62155100       0.09369100      -1.09299500
Si       1.32445000       3.96917000       3.98420000       0.50884500       0.73901300       1.00510600
Si       4.00241000       1.29675000       3.96581000       0.33966500       0.40467700       1.66191200
Si       4.12231000       4.04189000       1.36325000      -0.15473500      -0.24264200      -1.23849300
8
Lattice="5.521404773 -0.045177559 0.058298189 -0.045177559 5.361214027 -0.125083254 0.058298189 -0.125083254 5.499686285" Properties=species:S:1:pos:R:3:REF_forces:R:3 REF_energy=-42.54380869 REF_stress="_JSON [-0.007362933553548955, -0.014430974525427303, 0.009963027666718527, -0.014430974525427303, -0.0230467162737418, -0.045516099194848524, 0.009963027666718527, -0.045516099194848524, -0.010328255814728713]" pbc="T T T"
Si       0.11028000      -0.12470000       5.46789000      -1.07963600      -0.32514000      -0.59217100
Si       0.07101000       2.61810000       2.75322000      -2.77318800      -0.93392200      -1.56011400
Si       2.74294000       5.22571000       2.62768000      -1.02603600       0.94451600       0.36717000
Si       2.73957000       2.59034000      -0.00002000      -0.96988800       0.79550900       0.01954700
Si       1.34354000       1.22699000       1.39212000       0.79916300       0.52512300       0.13040500
Si       1.38759000       3.86167000       3.93243000       1.45264800       0.61357900       2.25964300
Si       4.08878000       1.16356000       4.15882000       1.65090600       0.10865400      -0.16949200
Si       4.05032000       4.05853000       1.28812000       1.94603200      -1.72831900      -0.45498700
8
Lattice="5.398855289 0.05295693 0.044620235 0.05295693 5.468466006 -0.012042718 0.044620235 -0.012042718 5.497950652" Properties=species:S:1:pos:R:3:REF_forces:R:3 REF_energy=-43.09208306 REF_stress="_JSON [-0.012163440501503042, 0.010067897503051619, 0.017497671377829656, 0.010067897503051619, -0.004508341905771492, 0.0046765131276592905, 0.017497671377829656, 0.0046765131276592905, -0.0016600292161746669]" pbc="T T T"
Si       5.41424000       0.07043000       5.49595000       0.55805100       0.23572500      -0.01484600
Si       0.08572000       2.78529000       2.74696000      -0.15682900       0.52066000       0.16774100
Si       2.76502000       0.06626000       2.66856000      -0.03814100       0.31110000       0.85873000
Si       2.63027000       2.69793000       0.06246000       1.37142600       1.37697400      -0.98207000
Si       1.34565000       1.38610000       1.37071000      -0.69675500      -0.47797100       0.21869600
Si       1.49284000       4.20955000       4.09681000      -0.12560500      -0.88943800       0.02959100
Si       4.12154000       1.41521000       4.11522000      -0.62590300       0.44695700      -0.07315600
Si       4.13384000       4.20881000       1.34991000      -0.28624400      -1.52400800      -0.20468600
8
Lattice="5.394695744 0.053408486 0.133614642 0.053408486 5.468581945 0.10972152 0.133614642 0.10972152 5.448098941" Properties=species:S:1:pos:R:3:REF_forces:R:3 REF_energy=-42.72153079 REF_stress="_JSON [-0.018335687600616372, 0.027560918956582494, 0.029444849829629968, 0.027560918956582494, -0.013415275020844941, 0.008026000275537163, 0.029444849829629968, 0.008026000275537163, -0.015355117332642084]" pbc="T T T"
Si       0.04090000       0.06233000       0.00965000      -0.79726000      -0.25016800       0.43316300
Si       0.14730000       2.77971000       2.72296000      -1.38692400       2.47942900       1.35060400
Si       2.67901000       0.20868000       2.76443000       0.97020300      -0.74029000       1.22063000
Si       2.92292000       2.88024000       5.53896000      -0.63684100       0.32665600       0.78244200
Si       1.32102000       1.44310000       1.48948000       0.95641800      -0.35905300      -2.55622700
Si       1.50309000       4.22786000       4.24654000      -0.13351300      -0.46510500      -0.65436100
Si       4.18442000       1.52543000       4.17893000      -0.03463200      -0.64121400      -0.18121300
Si       3.99922000       4.22988000       1.56555000       1.06254900      -0.35025500      -0.39503900
8
Lattice="5.425277347 0.056353232 -0.056102557 0.056353232 5.413915935 0.005646916 -0.056102557 0.005646916 5.470392342" Properties=species:S:1:pos:R:3:REF_forces:R:3 REF_energy=-42.95544771 REF_stress="_JSON [-0.014827847124705716, 0.012985671947710399, -0.01673343603442001, 0.012985671947710399, -0.01804057656612636, -0.013174452632731863, -0.01673343603442001, -0.013174452632731863, -0.010555914860095305]" pbc="T T T"
Si       0.06196000       5.41316000       5.45776000      -1.50517700       0.25557400       0.39667000
Si       0.02788000       2.70024000       2.75656000      -0.31864600      -0.65822800      -0.16392000
Si       2.70331000       0.05208000       2.78703000      -0.44169900      -1.11198200      -0.89129300
Si       2.71547000       2.77710000       5.41286000      -0.61842300      -0.15717800       1.32830500
Si       1.39225000       1.28524000       1.30855000       0.25610700       1.40733200       0.66543800
Si       1.32661000       4.09265000       4.15190000       0.52343900      -0.29813100      -1.32466200
Si       3.93385000       1.39999000       4.11098000       2.02774900       0.35843100      -0.49065000
Si       4.13127000       4.11887000       1.31235000       0.07665000       0.20418100       0.48011300
8
Lattice="5.389844184 -0.020202025 -0.104824622 -0.020202025 5.401766589 0.038216293 -0.104824622 0.038216293 5.540695116" Properties=species:S:1:pos:R:3:REF_forces:R:3 REF_energy=-43.00342707 REF_stress="_JSON [-0.017289841606955996, 0.005210636512615875, -0.014944014092556655, 0.005210636512615875, -0.014501703306841815, 0.013657389401347081, -0.014944014092556655, 0.013657389401347081, -5.038770317325554e-05]" pbc="T T T"
Si      -0.08980000       0.11401000       5.52859000      -0.14581300      -0.24794700       0.38622300
Si       5.32063000       2.75163000       2.70274000       0.97170000      -0.58979200       0.21562100
Si       2.65060000       5.40595000       2.64191000       0.23316400      -0.08159800       1.41610800
Si       2.58009000       2.68316000       5.47649000       0.21490200       1.46751600       0.03953500
Si       1.39455000       1.42070000       1.34207000      -1.27247800      -0.12494000       0.50940900
Si       1.22591000       4.15293000       4.19084000       0.57017500       0.05698400      -0.53157900
Si       3.94868000       1.46576000       4.10050000      -0.03499600      -1.09372700      -0.94416600
Si       4.05327000       4.02831000       1.34593000      -0.53665400       0.61350400      -1.09115000
8
Lattice="5.368687525 0.056839971 0.011139793 0.056839971 5.456159219 0.00666969 0.011139793 0.00666969 5.414133918" Properties=species:S:1:pos:R:3:REF_forces:R:3 REF_energy=-43.10294643 REF_stress="_JSON [-0.024282054484463987, 0.010510258220839468, -0.0023243067909332962, 0.010510258220839468, -0.01511018803152417, 0.0014779394289361485, -0.0023243067909332962, 0.0014779394289361485, -0.019658993640958765]" pbc="T T T"
Si       5.41111000       5.44122000       5.40586000       1.09639400       0.51101600       0.37687500
Si       5.37962000       2.80217000       2.79316000       0.09001900      -0.83105400      -0.27640800
Si       2.76708000       5.46798000       2.67614000      -0.12770300       0.03602500       0.04956900
Si       2.78843000       2.76378000       0.01913000      -1.02280300      -0.52933000      -0.06791700
Si       1.37983000       1.37209000       1.40034000      -0.76310700       0.40089400      -0.93745400
Si       1.45550000       4.10316000       3.99449000      -0.27986700      -0.22426800       0.87495500
Si       3.99986000       1.30709000       4.08059000       0.58784300       0.80544000      -0.09930500
Si       4.08183000       4.11351000       1.36050000       0.41922400      -0.16872300       0.07968500
